Features/ForMiniZinc/benchmark_puzzles/benchmarks5x5/70/puzzle16.dzn
S = 5;
start = [|0,0,9,0,12,0,0,22,0,0,0,0,0,7,0,0,0,13,0,0,8,0,0,11,3|
16,25,10,23,0,0,0,0,0,0,0,0,0,0,20,22,4,0,0,2,0,0,0,0,0|
0,0,0,11,0,0,5,0,0,20,0,4,0,19,0,0,0,8,12,0,0,0,0,23,7|
0,0,0,5,0,0,0,13,9,0,16,0,0,23,0,0,0,0,0,0,0,0,0,0,20|
0,13,0,0,0,0,23,8,0,0,0,0,18,0,0,0,0,0,0,0,5,0,0,0,0|
12,1,0,0,0,0,0,11,23,0,0,20,4,0,0,0,0,25,0,0,0,0,21,0,13|
0,0,0,17,0,0,0,0,0,0,0,0,0,0,0,0,0,0,0,0,0,10,0,0,0|
0,0,0,0,8,0,0,0,15,0,0,0,0,0,0,0,5,23,0,9,0,0,0,0,0|
0,0,0,0,0,0,0,0,0,0,0,0,0,0,0,0,2,21,0,0,0,0,0,0,0|
0,0,0,0,0,19,13,16,0,0,0,25,0,0,6,14,17,0,0,0,11,0,0,0,18|
0,0,0,25,0,0,0,5,13,0,19,8,0,17,0,24,0,9,0,7,22,0,2,0,0|
0,0,0,0,0,25,0,0,0,0,9,0,0,0,5,0,0,11,0,0,16,0,0,24,0|
0,0,0,0,0,0,0,0,0,0,0,21,7,11,0,0,0,0,2,0,0,0,0,0,25|
17,11,0,0,5,0,0,0,21,0,0,1,0,0,15,16,0,3,0,25,0,18,0,8,23|
0,0,16,0,0,0,0,0,22,0,0,0,0,0,0,0,0,0,0,0,1,0,5,13,21|
0,0,0,0,19,0,20,25,0,0,0,9,0,0,2,0,0,0,0,0,0,17,0,0,0|
13,0,0,0,17,16,0,0,0,0,21,0,0,22,0,0,0,0,20,0,0,2,0,0,0|
0,14,24,0,20,23,0,0,0,2,0,0,19,0,16,0,0,1,0,17,0,21,7,0,0|
0,12,0,0,0,0,0,1,0,0,5,0,23,0,0,0,0,0,0,0,0,0,0,0,16|
0,0,0,0,10,0,14,9,0,0,6,0,0,20,0,11,21,0,16,4,12,0,0,0,0|
19,16,0,0,7,10,22,0,0,0,0,0,6,15,0,0,11,0,13,0,0,0,0,1,0|
0,15,0,6,0,0,0,0,0,5,0,0,0,0,19,2,0,0,0,1,0,4,0,0,0|
0,5,0,10,24,7,0,0,0,8,25,22,0,0,0,0,0,0,19,0,0,0,0,0,0|
0,0,3,0,0,0,0,17,24,0,0,0,0,0,0,0,14,10,0,0,7,19,0,0,0|
0,0,0,1,22,0,0,0,0,0,0,10,0,0,3,25,7,0,0,20,0,0,15,0,8|];